(set-logic QF_BV)
(declare-fun _substvar_754_ () Bool)
(declare-fun _substvar_663_ () (_ BitVec 16))
(declare-fun _substvar_302_ () (_ BitVec 8))
(declare-fun _substvar_432_ () Bool)
(declare-fun _substvar_385_ () Bool)
(declare-fun _substvar_988_ () Bool)
(declare-fun _substvar_284_ () (_ BitVec 32))
(declare-fun _substvar_669_ () (_ BitVec 8))
(declare-fun _substvar_645_ () (_ BitVec 8))
(assert (let ( (?v_3 ((_ zero_extend 24) _substvar_302_)) (?v_1 ((_ zero_extend 24) _substvar_669_))) (let ((?v_0 (bvadd ?v_1 (_ bv1 32)))) (let ((?v_2 (bvadd (bvadd ?v_0 (_ bv4268253 32)) ((_ zero_extend 16) _substvar_663_)))) (let ((?v_4 (bvadd ?v_2 (_ bv6 32)))) (let ((?v_6 (bvadd (bvadd ?v_4 (bvadd ?v_3 (_ bv1 32))) (_ bv2 32)))) (let ((?v_5 (bvadd ?v_6 (_ bv0 32)))) (let ((?v_8 (bvadd ?v_5 (_ bv6 32)))) (let ((?v_11 (bvadd ?v_8 (bvadd _substvar_284_ (_ bv1 32))))) (let ((?v_13 (bvadd ?v_11 (_ bv2 32))) (?v_9 ((_ zero_extend 24) _substvar_645_))) (let ((?v_12 (bvadd ?v_13 ?v_9))) (and true _substvar_385_ true true (bvsle (_ bv1040 32) (bvsub ?v_12 (_ bv4268071 32))) true true _substvar_754_ _substvar_432_ true true true true (= _substvar_284_ (_ bv1 32)) true true true true _substvar_988_ (bvule (bvadd ?v_12 (_ bv2 32)) (_ bv4269078 32)) (bvule ?v_13 (_ bv4269078 32))))))))))))))
(check-sat)
(exit)
